p cnf 12 50 
5 -10 -11 0
11 5 -3 0
9 5 -12 0
11 -8 -1 0
12 7 -1 0
-4 -5 3 0
12 1 -11 0
-11 4 -7 0
5 -6 -3 0
-6 -10 -12 0
7 12 -1 0
7 -5 6 0
-4 -7 -8 0
9 -3 -4 0
11 12 2 0
-4 -11 7 0
-2 6 11 0
-2 5 12 0
9 12 -3 0
-2 -12 8 0
7 -6 8 0
5 10 3 0
-10 -6 4 0
4 11 -8 0
9 -12 -8 0
8 -2 -1 0
5 -11 -10 0
-7 -1 6 0
12 -2 3 0
-10 -5 12 0
-3 -11 1 0
10 1 -2 0
-11 3 -12 0
1 -12 -10 0
-3 7 -1 0
1 9 12 0
-8 3 -2 0
11 -6 5 0
7 -5 -8 0
-7 10 -8 0
-4 9 -11 0
3 11 -2 0
2 -12 4 0
10 -1 -5 0
4 3 -9 0
7 -3 8 0
-9 7 1 0
-3 2 8 0
-6 -5 -8 0
-11 -4 -9 0
